NAME : morphed23-5-12
COMMENT : Generated using the function morphInstances from the R-package netgen (Bossek,2015) - Number of clusters: 5 Alpha: 0.5
TYPE : TSP
DIMENSION : 23
EDGE_WEIGHT_TYPE : EUC_2D
NODE_COORD_SECTION
1 17.5726408533 74.8291328233
2 81.0901035829 19.7822629205
3 93.4856112669 23.3312863864
4 33.3061025178 58.5004601278
5 19.2800400073 20.7435162457
6 11.352241729 36.1764527779
7 29.9936246746 67.340507982
8 74.9202983959 16.233294387
9 17.0789002861 88.2057469348
10 13.956201338 84.5278691499
11 38.7884313202 84.292853009
12 82.0115175263 60.6157678743
13 37.6458172337 92.5146892062
14 39.9387950358 70.1446319389
15 29.6122758355 85.2194114316
16 61.1451143058 28.2391303169
17 61.0004376133 45.7848560047
18 50.8264675327 61.9459087597
19 68.9319864533 53.6942530179
20 23.9590423469 92.358007688
21 23.8015224539 19.7502862593
22 76.3724362049 72.3124152444
23 16.6331789667 10.2309818398
EOF
